StringID   Type       x          y          demand     ReadyTime  DueDate    ServiceTime  wp1 wp2 wp3 wp4 wp5 wp6 wp7 wp8 wp9 wp10 wp11 wp12 wp13 wp14 wp15 wp16 wp17 wp18 wp19 wp20 wp21 wp22 wp23 wp24 wp25 wp26 wp27 wp28 wp29 wp30 wp31 wp32 wp33 wp34 wp35 wp36 wp37 wp38 wp39 wp40 wp41 wp42 wp43 wp44 wp45 wp46 wp47 wp48 wp49 wp50 wp51 wp52 wp53 wp54 wp55 wp56 wp57
D0         d          40.0       50.0       0.0        0.0        3390.0     0.0          6   7   8   9   10  11  12  13  14  15   16   17   18   19   20   21   22   23   24   1    2    3    4    5    6    7    8    9    10   11   12   13   14   15   16   17   18   19   20   21   22   23   24   1    2    3    4    5    6    7    8    9    10   11   12   13   14
S0         f          40.0       50.0       0.0        0.0        3390.0     0.0          0.2 0.4 0.6 1   1   1   1   1   1   1    1    0.6  0.4  0.2  0    0    0    0    0    0    0    0    0    0    0    0.1  0.2  0.3  0.3  0.2  0.2  0.2  0.2  0.3  0.3  0.2  0.1  0    0    0    0    0    0    0    0    0    0    0    0.2  0.4  0.6  1    1    1    1    1    1 
S11        f          10.0       28.0       0.0        0.0        3390.0     0.0          0   0.1 0.2 0.3 0.3 0.2 0.2 0.2 0.2 0.3  0.3  0.2  0.1  0.0  0    0    0    0    0    0    0    0    0    0    0.2  0.4  0.6  1    1    1    1    1    1    1    1    0.6  0.4  0.2  0    0    0    0    0    0    0    0    0    0    0.2  0.4  0.6  1    1    1    1    1    1 
S14        f          27.0       10.0       0.0        0.0        3390.0     0.0          0.2 0.4 0.6 1   1   1   1   1   1   1    1    0.6  0.4  0.2  0    0    0    0    0    0    0    0    0    0    0.2  0.4  0.6  1    1    1    1    1    1    1    1    0.6  0.4  0.2  0    0    0    0    0    0    0    0    0    0    0.2  0.4  0.6  1    1    1    1    1    1 
C39        c          0.0        45.0       20.0       1642.0     2282.0     90.0         
C50        c          26.0       32.0       10.0       255.0      895.0      90.0          
C60        c          35.0       5.0        20.0       1152.0     1792.0     90.0         
C58        c          38.0       5.0        30.0       1245.0     1885.0     90.0          
C53        c          44.0       5.0        20.0       1431.0     2071.0     90.0          

F Vehicle fuel tank capacity /12/
Q Vehicle load capacity /700.0/
r fuel consumption rate /0.155/
m inverse refueling rate /0.5/
v average Velocity /1.0/